
Gurobi 11.0.1 (win64) logging started Tue May 14 18:26:02 2024

Set parameter LogFile to value "output/solver_log35.txt"
Gurobi Optimizer version 11.0.1 build v11.0.1rc0 (win64 - Windows 11.0 (22631.2))

CPU model: 11th Gen Intel(R) Core(TM) i7-1165G7 @ 2.80GHz, instruction set [SSE2|AVX|AVX2|AVX512]
Thread count: 4 physical cores, 8 logical processors, using up to 8 threads

Optimize a model with 1083 rows, 226 columns and 20349 nonzeros
Model fingerprint: 0x1c910f5a
Variable types: 88 continuous, 138 integer (138 binary)
Coefficient statistics:
  Matrix range     [4e-01, 1e+05]
  Objective range  [1e+00, 1e+02]
  Bounds range     [1e+00, 1e+00]
  RHS range        [1e-02, 1e+05]

User MIP start produced solution with objective 38085.5 (0.00s)
User MIP start produced solution with objective 39416.9 (0.00s)
User MIP start produced solution with objective 39416.9 (0.00s)
Loaded user MIP start with objective 39416.9

Presolve removed 92 rows and 94 columns
Presolve time: 0.01s
Presolved: 991 rows, 132 columns, 19539 nonzeros
Variable types: 81 continuous, 51 integer (50 binary)

Root relaxation: objective 4.068833e+04, 261 iterations, 0.01 seconds (0.03 work units)

    Nodes    |    Current Node    |     Objective Bounds      |     Work
 Expl Unexpl |  Obj  Depth IntInf | Incumbent    BestBd   Gap | It/Node Time

     0     0 40688.3338    0    5 39416.9483 40688.3338  3.23%     -    0s
     0     0 39767.9165    0    5 39416.9483 39767.9165  0.89%     -    0s
     0     0          -    0      39416.9483 39420.6368  0.01%     -    0s

Cutting planes:
  Cover: 1
  RLT: 4

Explored 1 nodes (348 simplex iterations) in 0.10 seconds (0.15 work units)
Thread count was 8 (of 8 available processors)

Solution count 3: 39416.9 39416.9 38085.5 

Optimal solution found (tolerance 1.00e-04)
Best objective 3.941694833929e+04, best bound 3.942063677699e+04, gap 0.0094%
